p edge 25 108 18
e 1 3
e 1 5
e 1 6
e 1 7
e 1 10
e 1 11
e 1 14
e 1 16
e 1 18
e 1 19
e 1 23
e 2 5
e 2 7
e 2 10
e 2 15
e 2 18
e 2 19
e 2 21
e 2 24
e 2 25
e 3 5
e 3 7
e 3 11
e 3 13
e 3 18
e 3 19
e 3 22
e 3 23
e 4 9
e 4 15
e 4 17
e 4 18
e 4 21
e 4 22
e 4 25
e 5 6
e 5 15
e 5 16
e 5 20
e 6 10
e 6 14
e 6 15
e 6 16
e 6 18
e 6 19
e 6 22
e 6 25
e 7 9
e 7 17
e 7 18
e 7 19
e 7 25
e 8 9
e 8 13
e 8 15
e 8 20
e 8 22
e 8 24
e 8 25
e 9 10
e 9 12
e 9 15
e 9 17
e 9 19
e 9 22
e 10 13
e 10 20
e 11 12
e 11 14
e 11 17
e 11 20
e 11 25
e 12 14
e 12 15
e 12 17
e 12 18
e 12 22
e 12 23
e 12 25
e 13 15
e 13 18
e 13 19
e 13 21
e 13 25
e 14 18
e 14 19
e 14 25
e 15 18
e 15 21
e 15 25
e 16 17
e 16 25
e 17 20
e 17 23
e 17 25
e 18 20
e 18 21
e 18 22
e 18 23
e 18 24
e 18 25
e 19 22
e 19 23
e 20 22
e 21 23
e 21 24
e 23 24
e 23 25
